NAME : ftv47.tour
COMMENT : Optimum tour for ftv47.tsp (Length 1776)
TYPE : TOUR
DIMENSION : 48
TOUR_SECTION  
45
22
48
27
43
29
4
25
5
30
31
32
6
7
9
12
11
1
26
2
10
34
28
3
42
44
23
41
21
39
38
19
18
13
33
8
24
35
14
47
37
36
15
16
17
46
40
20
-1
EOF
